!  Parameters for CGCG074-064 (CANDEL globals, Reid convention)
      100000 ! Total "burn-in" trials (done in stages of 100,000); if negative, instead read in "burnin_values.dat" 
      500000            4           15          210 ! Total # trials (stored or not); # of M-H strands (1-20); Initial Ho strand range (min max)
           0          0.5            T            T            T            T ! Gaussian (0) or "outlier tolerant" (1) data unc; fraction Ho-M trials correlated; x,y,v,a fitted?
       0.015    -47351937 ! Initial McMC parameter step size in burnin phase; random number seed 
   78.393473           -5          0.7 ! Ho (Mpc); prior_unc (<0 for flat prior), expected posteriori_unc
   2.3823195         -0.1         0.05 ! BH mass (10^7 Msuns)
   6909.4047         -0.5         0.25 ! Vlsr_optical of BH (km/s) 
   0.0013359        -0.01        0.002 ! Xo of BH (mas)
   0.0064341        -0.01        0.004 ! Yo of BH (mas)
   89.452256         -0.5          0.1 ! i (deg)
      1.8877           -1         0.05 ! di/dr (deg/mas)
           0            0            0 ! d2i/dr (deg/mas^2)
   101.58549           -1         0.05 ! PA (deg)
      4.8651           -1         0.02 ! dPA/dr (deg/mas)
           0            0            0 ! d2PA/dr2 (deg/mas^2)
           0            0            0 ! Eccentricity
           0            0            0 ! Pericenter azimuth (deg)
           0            0            0 ! dP-az/dr (deg/mas)
           0            0            0 ! Vcorrection: added to Vobserved to get to Hubble flow (km/s)
   0.0005001       -0.002        0.001 ! x floor (mas)
   0.0142957        -0.01        0.001 ! y floor (mas)
      1.7988        -0.25         0.15 ! Vsys floor (km/s)
      2.0738         -0.5         0.15 ! Vsys floor (km/s)
      0.2342         -0.2         0.05 ! Acc floor (km/s/yr)
