!  Parameters for UGC3789 (CANDEL globals, Reid convention)
      100000 ! Total "burn-in" trials (done in stages of 100,000); if negative, instead read in "burnin_values.dat" 
      500000            4           15          210 ! Total # trials (stored or not); # of M-H strands (1-20); Initial Ho strand range (min max)
           0          0.5            T            T            T            T ! Gaussian (0) or "outlier tolerant" (1) data unc; fraction Ho-M trials correlated; x,y,v,a fitted?
       0.015    -47351937 ! Initial McMC parameter step size in burnin phase; random number seed 
   61.295372           -5          0.7 ! Ho (Mpc); prior_unc (<0 for flat prior), expected posteriori_unc
   1.2120824         -0.1         0.05 ! BH mass (10^7 Msuns)
   3260.4419         -0.5         0.25 ! Vlsr_optical of BH (km/s) 
  -0.4024441        -0.01        0.002 ! Xo of BH (mas)
  -0.4611528        -0.01        0.004 ! Yo of BH (mas)
   90.492566         -0.5          0.1 ! i (deg)
     -8.4327           -1         0.05 ! di/dr (deg/mas)
           0            0            0 ! d2i/dr (deg/mas^2)
   221.47254           -1         0.05 ! PA (deg)
     -3.3263           -1         0.02 ! dPA/dr (deg/mas)
           0            0            0 ! d2PA/dr2 (deg/mas^2)
           0            0            0 ! Eccentricity
           0            0            0 ! Pericenter azimuth (deg)
           0            0            0 ! dP-az/dr (deg/mas)
           0            0            0 ! Vcorrection: added to Vobserved to get to Hubble flow (km/s)
    0.004725       -0.002        0.001 ! x floor (mas)
    0.007915        -0.01        0.001 ! y floor (mas)
      1.6051        -0.25         0.15 ! Vsys floor (km/s)
      2.0482         -0.5         0.15 ! Vsys floor (km/s)
      0.2395         -0.2         0.05 ! Acc floor (km/s/yr)
