!  Parameters for NGC 6323 (Kuo 2015 priors: fixed floors + floated Vp)
      100000 ! Total "burn-in" trials (done in stages of 100,000); if negative, instead read in "burnin_values.dat"
      500000            4       15.0     210.0 ! Total # trials (stored or not); # of M-H strands (1-20); Initial Ho strand range (min max)
           0          0.5            T            T            T            T ! Gaussian (0) or "outlier tolerant" (1) data unc; fraction Ho-M trials correlated; x,y,v,a fitted?
       0.015    -47351937 ! Initial McMC parameter step size in burnin phase; random number seed
   60.345873           -5          0.7 ! Ho (Mpc); prior_unc (<0 for flat prior), expected posteriori_unc
   1.1703075         -0.1         0.05 ! BH mass (10^7 Msuns)
   7852.7119         -0.5         0.25 ! Vlsr_optical of BH (km/s)
   0.0146898        -0.01        0.002 ! Xo of BH (mas)
   0.0039044        -0.01        0.004 ! Yo of BH (mas)
   88.225547         -0.5          0.1 ! i (deg)
        1.14           -1         0.05 ! di/dr (deg/mas)
           0            0            0 ! d2i/dr (deg/mas^2)
   189.64019           -1         0.05 ! PA (deg)
     13.7687           -1         0.02 ! dPA/dr (deg/mas)
           0            0            0 ! d2PA/dr2 (deg/mas^2)
           0            0            0 ! Eccentricity
           0            0            0 ! Pericenter azimuth (deg)
           0            0            0 ! dP-az/dr (deg/mas)
        -285          163          100 ! Vcorrection: Kuo Vp ~ N(-285,163) km/s (prior_unc>0 => Gaussian centred on value)
       0.010            0            0 ! x floor (mas): FIXED at Kuo 0.01 (prior_unc=0 => frozen)
       0.010            0            0 ! y floor (mas): FIXED at Kuo 0.01
         1.8            0            0 ! Vsys floor (km/s): FIXED at Kuo 1.8
         1.8            0            0 ! Vhv floor (km/s): FIXED at Kuo 1.8
         0.0            0            0 ! Acc floor (km/s/yr): FIXED ~0 (Kuo used measured A errors; code clamps to 0.001)
